; Options: -in -smt2
(set-option :produce-unsat-assumptions true)

(declare-fun start!1725 () Bool)

(assert start!1725)

(declare-fun b!8983 () Bool)

(declare-fun res!7372 () Bool)

(declare-fun e!5061 () Bool)

(assert (=> b!8983 (=> (not res!7372) (not e!5061))))

(declare-datatypes ((array!703 0))(
  ( (array!704 (arr!310 (Array (_ BitVec 32) (_ FloatingPoint 11 53))) (size!310 (_ BitVec 32))) )
))
(declare-fun f!58 () array!703)

(declare-fun fInv!0 (array!703) Bool)

(assert (=> b!8983 (= res!7372 (fInv!0 f!58))))

(declare-fun lt!4520 () (_ BitVec 32))

(declare-fun lt!4521 () (_ BitVec 32))

(declare-fun i!179 () (_ BitVec 32))

(declare-fun b!8984 () Bool)

(declare-fun jz!32 () (_ BitVec 32))

(assert (=> b!8984 (= e!5061 (and (bvsle i!179 (bvadd lt!4520 jz!32)) (bvsge (bvadd (bvsub lt!4521 lt!4520) i!179) #b00000000000000000000000000000000) (let ((lhs!52 (bvsub lt!4521 lt!4520))) (and (= (bvand lhs!52 #b10000000000000000000000000000000) (bvand i!179 #b10000000000000000000000000000000)) (not (= (bvand lhs!52 #b10000000000000000000000000000000) (bvand (bvadd lhs!52 i!179) #b10000000000000000000000000000000)))))))))

(declare-fun b!8981 () Bool)

(declare-fun res!7375 () Bool)

(declare-fun e!5060 () Bool)

(assert (=> b!8981 (=> (not res!7375) (not e!5060))))

(declare-fun xx!44 () array!703)

(declare-fun xxInv!0 (array!703) Bool)

(assert (=> b!8981 (= res!7375 (xxInv!0 xx!44))))

(declare-fun res!7374 () Bool)

(assert (=> start!1725 (=> (not res!7374) (not e!5060))))

(declare-fun e!15 () (_ BitVec 32))

(assert (=> start!1725 (= res!7374 (and (bvsle #b00000000000000000000000000000000 jz!32) (bvsle jz!32 #b00000000000000000000000000001111) (bvsle #b00000000000000000000000000011000 e!15) (bvsle e!15 #b00000000000000000000001111110000) (= (bvsrem e!15 #b00000000000000000000000000011000) #b00000000000000000000000000000000)))))

(assert (=> start!1725 e!5060))

(assert (=> start!1725 true))

(declare-fun array_inv!260 (array!703) Bool)

(assert (=> start!1725 (array_inv!260 xx!44)))

(assert (=> start!1725 (array_inv!260 f!58)))

(declare-fun b!8982 () Bool)

(assert (=> b!8982 (= e!5060 e!5061)))

(declare-fun res!7373 () Bool)

(assert (=> b!8982 (=> (not res!7373) (not e!5061))))

(assert (=> b!8982 (= res!7373 (and (= (bvsub e!15 (bvmul #b00000000000000000000000000011000 (bvadd lt!4521 #b00000000000000000000000000000001))) #b00000000000000000000000000000000) (bvsle #b00000000000000000000000000000000 i!179) (bvsle i!179 (bvadd lt!4520 jz!32 #b00000000000000000000000000000001))))))

(declare-fun lt!4519 () (_ BitVec 32))

(assert (=> b!8982 (= lt!4521 (ite (bvslt lt!4519 #b00000000000000000000000000000000) #b00000000000000000000000000000000 lt!4519))))

(assert (=> b!8982 (= lt!4519 (bvsdiv (bvsub e!15 #b00000000000000000000000000000011) #b00000000000000000000000000011000))))

(assert (=> b!8982 (= lt!4520 (bvsub (size!310 xx!44) #b00000000000000000000000000000001))))

(assert (= (and start!1725 res!7374) b!8981))

(assert (= (and b!8981 res!7375) b!8982))

(assert (= (and b!8982 res!7373) b!8983))

(assert (= (and b!8983 res!7372) b!8984))

(declare-fun m!13419 () Bool)

(assert (=> b!8983 m!13419))

(declare-fun m!13421 () Bool)

(assert (=> b!8981 m!13421))

(declare-fun m!13423 () Bool)

(assert (=> start!1725 m!13423))

(declare-fun m!13425 () Bool)

(assert (=> start!1725 m!13425))

(check-sat (not start!1725) (not b!8981) (not b!8983))
(check-sat)
